NAME
ROWS
 N  OBJ
 G  c1
 G  c2
 G  c3
 G  c4
 G  c5
 G  c6
 G  c7
 G  c8
 G  c9
 G  c10
 G  c11
 G  c12
 G  c13
 G  c14
 G  c15
 G  c16
 G  c17
 G  c18
 G  c19
 G  c20
 G  c21
 G  c22
 G  c23
 G  c24
 G  c25
 G  c26
 G  c27
 G  c28
 G  c29
 G  c30
 G  c31
 G  c32
 G  c33
 G  c34
 G  c35
 G  c36
 G  c37
 G  c38
 G  c39
 G  c40
 G  c41
 G  c42
 G  c43
 G  c44
 G  c45
 G  c46
 G  c47
 G  c48
 G  c49
 G  c50
 G  c51
 G  c52
 G  c53
 G  c54
 G  c55
 G  c56
 G  c57
 G  c58
 G  c59
 G  c60
 G  c61
 G  c62
 G  c63
 G  c64
 G  c65
 G  c66
 G  c67
 G  c68
 G  c69
 G  c70
 G  c71
 G  c72
 G  c73
 G  c74
 G  c75
 G  c76
 G  c77
 G  c78
 G  c79
 G  c80
 G  c81
 G  c82
 G  c83
 G  c84
 G  c85
 G  c86
 G  c87
 G  c88
 G  c89
 G  c90
COLUMNS
    MARKER    'MARKER'                 'INTORG'
    x[1]      c1        1
    x[1]      c17       1
    x[1]      c18       1
    x[1]      c23       1
    x[1]      c27       1
    x[1]      c34       1
    x[1]      c44       1
    x[1]      c57       1
    x[1]      c61       1
    x[1]      OBJ       1
    x[2]      c2        1
    x[2]      c11       1
    x[2]      c14       1
    x[2]      c17       1
    x[2]      c34       1
    x[2]      c36       1
    x[2]      c45       1
    x[2]      c57       1
    x[2]      c76       1
    x[2]      c83       1
    x[2]      OBJ       1
    x[3]      c3        1
    x[3]      c14       1
    x[3]      c16       1
    x[3]      c19       1
    x[3]      c22       1
    x[3]      c27       1
    x[3]      c37       1
    x[3]      c63       1
    x[3]      c81       1
    x[3]      c88       1
    x[3]      OBJ       1
    x[4]      c4        1
    x[4]      c15       1
    x[4]      c26       1
    x[4]      c43       1
    x[4]      c47       1
    x[4]      c75       1
    x[4]      OBJ       1
    x[5]      c5        1
    x[5]      c15       1
    x[5]      c28       1
    x[5]      c33       1
    x[5]      c55       1
    x[5]      c66       1
    x[5]      c74       1
    x[5]      c78       1
    x[5]      OBJ       1
    x[6]      c6        1
    x[6]      c10       1
    x[6]      c24       1
    x[6]      c30       1
    x[6]      c33       1
    x[6]      c47       1
    x[6]      c51       1
    x[6]      c62       1
    x[6]      c84       1
    x[6]      c89       1
    x[6]      OBJ       1
    x[7]      c7        1
    x[7]      c11       1
    x[7]      c17       1
    x[7]      c19       1
    x[7]      c45       1
    x[7]      c58       1
    x[7]      c66       1
    x[7]      c67       1
    x[7]      c68       1
    x[7]      c75       1
    x[7]      c76       1
    x[7]      c83       1
    x[7]      c87       1
    x[7]      OBJ       1
    x[8]      c8        1
    x[8]      c35       1
    x[8]      c54       1
    x[8]      c66       1
    x[8]      c75       1
    x[8]      c85       1
    x[8]      OBJ       1
    x[9]      c9        1
    x[9]      c20       1
    x[9]      c21       1
    x[9]      c30       1
    x[9]      c56       1
    x[9]      c60       1
    x[9]      c79       1
    x[9]      OBJ       1
    x[10]     c6        1
    x[10]     c10       1
    x[10]     c21       1
    x[10]     c53       1
    x[10]     c74       1
    x[10]     OBJ       1
    x[11]     c2        1
    x[11]     c7        1
    x[11]     c11       1
    x[11]     c13       1
    x[11]     c18       1
    x[11]     c26       1
    x[11]     c30       1
    x[11]     c37       1
    x[11]     c38       1
    x[11]     c39       1
    x[11]     c53       1
    x[11]     c55       1
    x[11]     c60       1
    x[11]     c63       1
    x[11]     c86       1
    x[11]     OBJ       1
    x[12]     c12       1
    x[12]     c33       1
    x[12]     c38       1
    x[12]     c65       1
    x[12]     c67       1
    x[12]     c77       1
    x[12]     OBJ       1
    x[13]     c11       1
    x[13]     c13       1
    x[13]     c16       1
    x[13]     c20       1
    x[13]     c23       1
    x[13]     c39       1
    x[13]     c41       1
    x[13]     c54       1
    x[13]     c70       1
    x[13]     c73       1
    x[13]     c76       1
    x[13]     c78       1
    x[13]     c81       1
    x[13]     c88       1
    x[13]     OBJ       1
    x[14]     c2        1
    x[14]     c3        1
    x[14]     c14       1
    x[14]     c20       1
    x[14]     c54       1
    x[14]     c73       1
    x[14]     c77       1
    x[14]     c79       1
    x[14]     c81       1
    x[14]     c89       1
    x[14]     OBJ       1
    x[15]     c4        1
    x[15]     c5        1
    x[15]     c15       1
    x[15]     c28       1
    x[15]     c30       1
    x[15]     c31       1
    x[15]     c68       1
    x[15]     c71       1
    x[15]     c83       1
    x[15]     c90       1
    x[15]     OBJ       1
    x[16]     c3        1
    x[16]     c13       1
    x[16]     c16       1
    x[16]     c25       1
    x[16]     c33       1
    x[16]     c37       1
    x[16]     c39       1
    x[16]     c50       1
    x[16]     c68       1
    x[16]     OBJ       1
    x[17]     c1        1
    x[17]     c2        1
    x[17]     c7        1
    x[17]     c17       1
    x[17]     c25       1
    x[17]     c55       1
    x[17]     c64       1
    x[17]     c72       1
    x[17]     c88       1
    x[17]     OBJ       1
    x[18]     c1        1
    x[18]     c11       1
    x[18]     c18       1
    x[18]     c25       1
    x[18]     c33       1
    x[18]     c44       1
    x[18]     c46       1
    x[18]     c62       1
    x[18]     c72       1
    x[18]     c73       1
    x[18]     c76       1
    x[18]     c77       1
    x[18]     c88       1
    x[18]     OBJ       1
    x[19]     c3        1
    x[19]     c7        1
    x[19]     c19       1
    x[19]     c24       1
    x[19]     c29       1
    x[19]     c33       1
    x[19]     c37       1
    x[19]     c46       1
    x[19]     c49       1
    x[19]     c51       1
    x[19]     c52       1
    x[19]     c54       1
    x[19]     c55       1
    x[19]     c66       1
    x[19]     OBJ       1
    x[20]     c9        1
    x[20]     c13       1
    x[20]     c14       1
    x[20]     c20       1
    x[20]     c21       1
    x[20]     c27       1
    x[20]     c29       1
    x[20]     c34       1
    x[20]     c36       1
    x[20]     c41       1
    x[20]     c44       1
    x[20]     c51       1
    x[20]     c62       1
    x[20]     c79       1
    x[20]     c82       1
    x[20]     c87       1
    x[20]     OBJ       1
    x[21]     c9        1
    x[21]     c10       1
    x[21]     c20       1
    x[21]     c21       1
    x[21]     c31       1
    x[21]     c32       1
    x[21]     c35       1
    x[21]     c52       1
    x[21]     c53       1
    x[21]     c54       1
    x[21]     c77       1
    x[21]     c80       1
    x[21]     OBJ       1
    x[22]     c3        1
    x[22]     c22       1
    x[22]     c25       1
    x[22]     c32       1
    x[22]     c40       1
    x[22]     c42       1
    x[22]     c51       1
    x[22]     c54       1
    x[22]     c88       1
    x[22]     OBJ       1
    x[23]     c1        1
    x[23]     c13       1
    x[23]     c23       1
    x[23]     c35       1
    x[23]     c64       1
    x[23]     c77       1
    x[23]     c79       1
    x[23]     c82       1
    x[23]     c88       1
    x[23]     OBJ       1
    x[24]     c6        1
    x[24]     c19       1
    x[24]     c24       1
    x[24]     c25       1
    x[24]     c29       1
    x[24]     c38       1
    x[24]     c50       1
    x[24]     c69       1
    x[24]     OBJ       1
    x[25]     c16       1
    x[25]     c17       1
    x[25]     c18       1
    x[25]     c22       1
    x[25]     c24       1
    x[25]     c25       1
    x[25]     c39       1
    x[25]     c42       1
    x[25]     c44       1
    x[25]     c58       1
    x[25]     OBJ       1
    x[26]     c4        1
    x[26]     c11       1
    x[26]     c26       1
    x[26]     c27       1
    x[26]     c30       1
    x[26]     c46       1
    x[26]     c55       1
    x[26]     c62       1
    x[26]     c74       1
    x[26]     c84       1
    x[26]     OBJ       1
    x[27]     c1        1
    x[27]     c3        1
    x[27]     c20       1
    x[27]     c26       1
    x[27]     c27       1
    x[27]     c46       1
    x[27]     c71       1
    x[27]     c84       1
    x[27]     c88       1
    x[27]     OBJ       1
    x[28]     c5        1
    x[28]     c15       1
    x[28]     c28       1
    x[28]     c31       1
    x[28]     c42       1
    x[28]     c63       1
    x[28]     c72       1
    x[28]     OBJ       1
    x[29]     c19       1
    x[29]     c20       1
    x[29]     c24       1
    x[29]     c29       1
    x[29]     c31       1
    x[29]     c45       1
    x[29]     c48       1
    x[29]     c63       1
    x[29]     OBJ       1
    x[30]     c6        1
    x[30]     c9        1
    x[30]     c11       1
    x[30]     c15       1
    x[30]     c26       1
    x[30]     c30       1
    x[30]     c31       1
    x[30]     c35       1
    x[30]     c43       1
    x[30]     c58       1
    x[30]     c61       1
    x[30]     c62       1
    x[30]     c63       1
    x[30]     c64       1
    x[30]     c71       1
    x[30]     c76       1
    x[30]     c83       1
    x[30]     c88       1
    x[30]     OBJ       1
    x[31]     c15       1
    x[31]     c21       1
    x[31]     c28       1
    x[31]     c29       1
    x[31]     c30       1
    x[31]     c31       1
    x[31]     c35       1
    x[31]     c39       1
    x[31]     c40       1
    x[31]     c46       1
    x[31]     c58       1
    x[31]     c66       1
    x[31]     c74       1
    x[31]     c76       1
    x[31]     c79       1
    x[31]     c88       1
    x[31]     OBJ       1
    x[32]     c21       1
    x[32]     c22       1
    x[32]     c32       1
    x[32]     c41       1
    x[32]     c42       1
    x[32]     c49       1
    x[32]     c58       1
    x[32]     c68       1
    x[32]     OBJ       1
    x[33]     c5        1
    x[33]     c6        1
    x[33]     c12       1
    x[33]     c16       1
    x[33]     c18       1
    x[33]     c19       1
    x[33]     c33       1
    x[33]     c37       1
    x[33]     c40       1
    x[33]     c50       1
    x[33]     c57       1
    x[33]     c64       1
    x[33]     c78       1
    x[33]     c83       1
    x[33]     c84       1
    x[33]     OBJ       1
    x[34]     c1        1
    x[34]     c2        1
    x[34]     c20       1
    x[34]     c34       1
    x[34]     c40       1
    x[34]     c61       1
    x[34]     c63       1
    x[34]     c75       1
    x[34]     c78       1
    x[34]     c83       1
    x[34]     c89       1
    x[34]     OBJ       1
    x[35]     c8        1
    x[35]     c21       1
    x[35]     c23       1
    x[35]     c30       1
    x[35]     c31       1
    x[35]     c35       1
    x[35]     c38       1
    x[35]     c44       1
    x[35]     c53       1
    x[35]     c55       1
    x[35]     c74       1
    x[35]     c87       1
    x[35]     OBJ       1
    x[36]     c2        1
    x[36]     c20       1
    x[36]     c36       1
    x[36]     c37       1
    x[36]     c82       1
    x[36]     c85       1
    x[36]     OBJ       1
    x[37]     c3        1
    x[37]     c11       1
    x[37]     c16       1
    x[37]     c19       1
    x[37]     c33       1
    x[37]     c36       1
    x[37]     c37       1
    x[37]     c48       1
    x[37]     c53       1
    x[37]     c69       1
    x[37]     c79       1
    x[37]     OBJ       1
    x[38]     c11       1
    x[38]     c12       1
    x[38]     c24       1
    x[38]     c35       1
    x[38]     c38       1
    x[38]     c48       1
    x[38]     c66       1
    x[38]     c76       1
    x[38]     c85       1
    x[38]     OBJ       1
    x[39]     c11       1
    x[39]     c13       1
    x[39]     c16       1
    x[39]     c25       1
    x[39]     c31       1
    x[39]     c39       1
    x[39]     c44       1
    x[39]     c51       1
    x[39]     c62       1
    x[39]     c76       1
    x[39]     c79       1
    x[39]     c80       1
    x[39]     c88       1
    x[39]     OBJ       1
    x[40]     c22       1
    x[40]     c31       1
    x[40]     c33       1
    x[40]     c34       1
    x[40]     c40       1
    x[40]     c44       1
    x[40]     c81       1
    x[40]     OBJ       1
    x[41]     c13       1
    x[41]     c20       1
    x[41]     c32       1
    x[41]     c41       1
    x[41]     c44       1
    x[41]     c54       1
    x[41]     c64       1
    x[41]     c82       1
    x[41]     c86       1
    x[41]     OBJ       1
    x[42]     c22       1
    x[42]     c25       1
    x[42]     c28       1
    x[42]     c32       1
    x[42]     c42       1
    x[42]     c47       1
    x[42]     c53       1
    x[42]     c55       1
    x[42]     c57       1
    x[42]     c68       1
    x[42]     c89       1
    x[42]     OBJ       1
    x[43]     c4        1
    x[43]     c30       1
    x[43]     c43       1
    x[43]     c56       1
    x[43]     c58       1
    x[43]     c72       1
    x[43]     c81       1
    x[43]     c85       1
    x[43]     OBJ       1
    x[44]     c1        1
    x[44]     c18       1
    x[44]     c20       1
    x[44]     c25       1
    x[44]     c35       1
    x[44]     c39       1
    x[44]     c40       1
    x[44]     c41       1
    x[44]     c44       1
    x[44]     c61       1
    x[44]     c63       1
    x[44]     c75       1
    x[44]     c76       1
    x[44]     c83       1
    x[44]     OBJ       1
    x[45]     c2        1
    x[45]     c7        1
    x[45]     c29       1
    x[45]     c45       1
    x[45]     c75       1
    x[45]     OBJ       1
    x[46]     c18       1
    x[46]     c19       1
    x[46]     c26       1
    x[46]     c27       1
    x[46]     c31       1
    x[46]     c46       1
    x[46]     c48       1
    x[46]     c64       1
    x[46]     c65       1
    x[46]     c70       1
    x[46]     c82       1
    x[46]     OBJ       1
    x[47]     c4        1
    x[47]     c6        1
    x[47]     c42       1
    x[47]     c47       1
    x[47]     c49       1
    x[47]     c57       1
    x[47]     c74       1
    x[47]     c80       1
    x[47]     c81       1
    x[47]     c82       1
    x[47]     c84       1
    x[47]     OBJ       1
    x[48]     c29       1
    x[48]     c37       1
    x[48]     c38       1
    x[48]     c46       1
    x[48]     c48       1
    x[48]     c50       1
    x[48]     c51       1
    x[48]     c67       1
    x[48]     c83       1
    x[48]     OBJ       1
    x[49]     c19       1
    x[49]     c32       1
    x[49]     c47       1
    x[49]     c49       1
    x[49]     c50       1
    x[49]     c56       1
    x[49]     c69       1
    x[49]     c78       1
    x[49]     c84       1
    x[49]     c88       1
    x[49]     c90       1
    x[49]     OBJ       1
    x[50]     c16       1
    x[50]     c24       1
    x[50]     c33       1
    x[50]     c48       1
    x[50]     c49       1
    x[50]     c50       1
    x[50]     c54       1
    x[50]     c64       1
    x[50]     c70       1
    x[50]     c74       1
    x[50]     c76       1
    x[50]     OBJ       1
    x[51]     c6        1
    x[51]     c19       1
    x[51]     c20       1
    x[51]     c22       1
    x[51]     c39       1
    x[51]     c48       1
    x[51]     c51       1
    x[51]     c63       1
    x[51]     c70       1
    x[51]     c75       1
    x[51]     c85       1
    x[51]     c87       1
    x[51]     c88       1
    x[51]     OBJ       1
    x[52]     c19       1
    x[52]     c21       1
    x[52]     c52       1
    x[52]     c57       1
    x[52]     c59       1
    x[52]     c62       1
    x[52]     c82       1
    x[52]     c88       1
    x[52]     OBJ       1
    x[53]     c10       1
    x[53]     c11       1
    x[53]     c21       1
    x[53]     c35       1
    x[53]     c37       1
    x[53]     c42       1
    x[53]     c53       1
    x[53]     c55       1
    x[53]     c85       1
    x[53]     OBJ       1
    x[54]     c8        1
    x[54]     c13       1
    x[54]     c14       1
    x[54]     c19       1
    x[54]     c21       1
    x[54]     c22       1
    x[54]     c41       1
    x[54]     c50       1
    x[54]     c54       1
    x[54]     c77       1
    x[54]     c84       1
    x[54]     OBJ       1
    x[55]     c5        1
    x[55]     c11       1
    x[55]     c17       1
    x[55]     c19       1
    x[55]     c26       1
    x[55]     c35       1
    x[55]     c42       1
    x[55]     c53       1
    x[55]     c55       1
    x[55]     c67       1
    x[55]     c86       1
    x[55]     OBJ       1
    x[56]     c9        1
    x[56]     c43       1
    x[56]     c49       1
    x[56]     c56       1
    x[56]     OBJ       1
    x[57]     c1        1
    x[57]     c2        1
    x[57]     c33       1
    x[57]     c42       1
    x[57]     c47       1
    x[57]     c52       1
    x[57]     c57       1
    x[57]     c67       1
    x[57]     c76       1
    x[57]     OBJ       1
    x[58]     c7        1
    x[58]     c25       1
    x[58]     c30       1
    x[58]     c31       1
    x[58]     c32       1
    x[58]     c43       1
    x[58]     c58       1
    x[58]     c62       1
    x[58]     c77       1
    x[58]     c85       1
    x[58]     c89       1
    x[58]     OBJ       1
    x[59]     c52       1
    x[59]     c59       1
    x[59]     c68       1
    x[59]     c69       1
    x[59]     c73       1
    x[59]     OBJ       1
    x[60]     c9        1
    x[60]     c11       1
    x[60]     c60       1
    x[60]     c63       1
    x[60]     c66       1
    x[60]     c71       1
    x[60]     c83       1
    x[60]     OBJ       1
    x[61]     c1        1
    x[61]     c30       1
    x[61]     c34       1
    x[61]     c44       1
    x[61]     c61       1
    x[61]     c65       1
    x[61]     c68       1
    x[61]     c83       1
    x[61]     OBJ       1
    x[62]     c6        1
    x[62]     c18       1
    x[62]     c20       1
    x[62]     c26       1
    x[62]     c30       1
    x[62]     c39       1
    x[62]     c52       1
    x[62]     c58       1
    x[62]     c62       1
    x[62]     c65       1
    x[62]     c78       1
    x[62]     c80       1
    x[62]     OBJ       1
    x[63]     c3        1
    x[63]     c11       1
    x[63]     c28       1
    x[63]     c29       1
    x[63]     c30       1
    x[63]     c34       1
    x[63]     c44       1
    x[63]     c51       1
    x[63]     c60       1
    x[63]     c63       1
    x[63]     c65       1
    x[63]     c79       1
    x[63]     c84       1
    x[63]     c88       1
    x[63]     c90       1
    x[63]     OBJ       1
    x[64]     c17       1
    x[64]     c23       1
    x[64]     c30       1
    x[64]     c33       1
    x[64]     c41       1
    x[64]     c46       1
    x[64]     c50       1
    x[64]     c64       1
    x[64]     c65       1
    x[64]     c75       1
    x[64]     c83       1
    x[64]     OBJ       1
    x[65]     c12       1
    x[65]     c46       1
    x[65]     c61       1
    x[65]     c62       1
    x[65]     c63       1
    x[65]     c64       1
    x[65]     c65       1
    x[65]     c70       1
    x[65]     OBJ       1
    x[66]     c5        1
    x[66]     c7        1
    x[66]     c8        1
    x[66]     c19       1
    x[66]     c31       1
    x[66]     c38       1
    x[66]     c60       1
    x[66]     c66       1
    x[66]     c73       1
    x[66]     c75       1
    x[66]     c76       1
    x[66]     OBJ       1
    x[67]     c7        1
    x[67]     c12       1
    x[67]     c48       1
    x[67]     c55       1
    x[67]     c57       1
    x[67]     c67       1
    x[67]     c71       1
    x[67]     c84       1
    x[67]     OBJ       1
    x[68]     c7        1
    x[68]     c15       1
    x[68]     c16       1
    x[68]     c32       1
    x[68]     c42       1
    x[68]     c59       1
    x[68]     c61       1
    x[68]     c68       1
    x[68]     c71       1
    x[68]     c75       1
    x[68]     c76       1
    x[68]     c87       1
    x[68]     OBJ       1
    x[69]     c24       1
    x[69]     c37       1
    x[69]     c49       1
    x[69]     c59       1
    x[69]     c69       1
    x[69]     c72       1
    x[69]     c73       1
    x[69]     c78       1
    x[69]     c84       1
    x[69]     c89       1
    x[69]     OBJ       1
    x[70]     c13       1
    x[70]     c46       1
    x[70]     c50       1
    x[70]     c51       1
    x[70]     c65       1
    x[70]     c70       1
    x[70]     OBJ       1
    x[71]     c15       1
    x[71]     c27       1
    x[71]     c30       1
    x[71]     c60       1
    x[71]     c67       1
    x[71]     c68       1
    x[71]     c71       1
    x[71]     c84       1
    x[71]     OBJ       1
    x[72]     c17       1
    x[72]     c18       1
    x[72]     c28       1
    x[72]     c43       1
    x[72]     c69       1
    x[72]     c72       1
    x[72]     OBJ       1
    x[73]     c13       1
    x[73]     c14       1
    x[73]     c18       1
    x[73]     c59       1
    x[73]     c66       1
    x[73]     c69       1
    x[73]     c73       1
    x[73]     OBJ       1
    x[74]     c5        1
    x[74]     c10       1
    x[74]     c26       1
    x[74]     c31       1
    x[74]     c35       1
    x[74]     c47       1
    x[74]     c50       1
    x[74]     c74       1
    x[74]     c85       1
    x[74]     OBJ       1
    x[75]     c4        1
    x[75]     c7        1
    x[75]     c8        1
    x[75]     c34       1
    x[75]     c44       1
    x[75]     c45       1
    x[75]     c51       1
    x[75]     c64       1
    x[75]     c66       1
    x[75]     c68       1
    x[75]     c75       1
    x[75]     c76       1
    x[75]     OBJ       1
    x[76]     c2        1
    x[76]     c7        1
    x[76]     c13       1
    x[76]     c18       1
    x[76]     c30       1
    x[76]     c31       1
    x[76]     c38       1
    x[76]     c39       1
    x[76]     c44       1
    x[76]     c50       1
    x[76]     c57       1
    x[76]     c66       1
    x[76]     c68       1
    x[76]     c75       1
    x[76]     c76       1
    x[76]     c80       1
    x[76]     c81       1
    x[76]     c89       1
    x[76]     OBJ       1
    x[77]     c12       1
    x[77]     c14       1
    x[77]     c18       1
    x[77]     c21       1
    x[77]     c23       1
    x[77]     c54       1
    x[77]     c58       1
    x[77]     c77       1
    x[77]     c78       1
    x[77]     OBJ       1
    x[78]     c5        1
    x[78]     c13       1
    x[78]     c33       1
    x[78]     c34       1
    x[78]     c49       1
    x[78]     c62       1
    x[78]     c69       1
    x[78]     c77       1
    x[78]     c78       1
    x[78]     c87       1
    x[78]     OBJ       1
    x[79]     c9        1
    x[79]     c14       1
    x[79]     c20       1
    x[79]     c23       1
    x[79]     c31       1
    x[79]     c37       1
    x[79]     c39       1
    x[79]     c63       1
    x[79]     c79       1
    x[79]     c85       1
    x[79]     OBJ       1
    x[80]     c21       1
    x[80]     c39       1
    x[80]     c47       1
    x[80]     c62       1
    x[80]     c76       1
    x[80]     c80       1
    x[80]     c85       1
    x[80]     c87       1
    x[80]     c89       1
    x[80]     OBJ       1
    x[81]     c3        1
    x[81]     c13       1
    x[81]     c14       1
    x[81]     c40       1
    x[81]     c43       1
    x[81]     c47       1
    x[81]     c76       1
    x[81]     c81       1
    x[81]     c83       1
    x[81]     OBJ       1
    x[82]     c20       1
    x[82]     c23       1
    x[82]     c36       1
    x[82]     c41       1
    x[82]     c46       1
    x[82]     c47       1
    x[82]     c52       1
    x[82]     c82       1
    x[82]     OBJ       1
    x[83]     c2        1
    x[83]     c7        1
    x[83]     c15       1
    x[83]     c30       1
    x[83]     c33       1
    x[83]     c34       1
    x[83]     c44       1
    x[83]     c48       1
    x[83]     c60       1
    x[83]     c61       1
    x[83]     c64       1
    x[83]     c81       1
    x[83]     c83       1
    x[83]     c90       1
    x[83]     OBJ       1
    x[84]     c6        1
    x[84]     c26       1
    x[84]     c27       1
    x[84]     c33       1
    x[84]     c47       1
    x[84]     c49       1
    x[84]     c54       1
    x[84]     c63       1
    x[84]     c67       1
    x[84]     c69       1
    x[84]     c71       1
    x[84]     c84       1
    x[84]     OBJ       1
    x[85]     c8        1
    x[85]     c36       1
    x[85]     c38       1
    x[85]     c43       1
    x[85]     c51       1
    x[85]     c53       1
    x[85]     c58       1
    x[85]     c74       1
    x[85]     c79       1
    x[85]     c80       1
    x[85]     c85       1
    x[85]     OBJ       1
    x[86]     c11       1
    x[86]     c41       1
    x[86]     c55       1
    x[86]     c86       1
    x[86]     OBJ       1
    x[87]     c7        1
    x[87]     c20       1
    x[87]     c35       1
    x[87]     c51       1
    x[87]     c68       1
    x[87]     c78       1
    x[87]     c80       1
    x[87]     c87       1
    x[87]     OBJ       1
    x[88]     c3        1
    x[88]     c13       1
    x[88]     c17       1
    x[88]     c18       1
    x[88]     c22       1
    x[88]     c23       1
    x[88]     c27       1
    x[88]     c30       1
    x[88]     c31       1
    x[88]     c39       1
    x[88]     c49       1
    x[88]     c51       1
    x[88]     c52       1
    x[88]     c63       1
    x[88]     c88       1
    x[88]     OBJ       1
    x[89]     c6        1
    x[89]     c14       1
    x[89]     c34       1
    x[89]     c42       1
    x[89]     c58       1
    x[89]     c69       1
    x[89]     c76       1
    x[89]     c80       1
    x[89]     c89       1
    x[89]     OBJ       1
    x[90]     c15       1
    x[90]     c49       1
    x[90]     c63       1
    x[90]     c83       1
    x[90]     c90       1
    x[90]     OBJ       1
    MARKER    'MARKER'                 'INTEND'
RHS
    rhs       c1        1
    rhs       c2        1
    rhs       c3        1
    rhs       c4        1
    rhs       c5        1
    rhs       c6        1
    rhs       c7        1
    rhs       c8        1
    rhs       c9        1
    rhs       c10       1
    rhs       c11       1
    rhs       c12       1
    rhs       c13       1
    rhs       c14       1
    rhs       c15       1
    rhs       c16       1
    rhs       c17       1
    rhs       c18       1
    rhs       c19       1
    rhs       c20       1
    rhs       c21       1
    rhs       c22       1
    rhs       c23       1
    rhs       c24       1
    rhs       c25       1
    rhs       c26       1
    rhs       c27       1
    rhs       c28       1
    rhs       c29       1
    rhs       c30       1
    rhs       c31       1
    rhs       c32       1
    rhs       c33       1
    rhs       c34       1
    rhs       c35       1
    rhs       c36       1
    rhs       c37       1
    rhs       c38       1
    rhs       c39       1
    rhs       c40       1
    rhs       c41       1
    rhs       c42       1
    rhs       c43       1
    rhs       c44       1
    rhs       c45       1
    rhs       c46       1
    rhs       c47       1
    rhs       c48       1
    rhs       c49       1
    rhs       c50       1
    rhs       c51       1
    rhs       c52       1
    rhs       c53       1
    rhs       c54       1
    rhs       c55       1
    rhs       c56       1
    rhs       c57       1
    rhs       c58       1
    rhs       c59       1
    rhs       c60       1
    rhs       c61       1
    rhs       c62       1
    rhs       c63       1
    rhs       c64       1
    rhs       c65       1
    rhs       c66       1
    rhs       c67       1
    rhs       c68       1
    rhs       c69       1
    rhs       c70       1
    rhs       c71       1
    rhs       c72       1
    rhs       c73       1
    rhs       c74       1
    rhs       c75       1
    rhs       c76       1
    rhs       c77       1
    rhs       c78       1
    rhs       c79       1
    rhs       c80       1
    rhs       c81       1
    rhs       c82       1
    rhs       c83       1
    rhs       c84       1
    rhs       c85       1
    rhs       c86       1
    rhs       c87       1
    rhs       c88       1
    rhs       c89       1
    rhs       c90       1
RANGES
BOUNDS
 BV bounds    x[1]
 BV bounds    x[2]
 BV bounds    x[3]
 BV bounds    x[4]
 BV bounds    x[5]
 BV bounds    x[6]
 BV bounds    x[7]
 BV bounds    x[8]
 BV bounds    x[9]
 BV bounds    x[10]
 BV bounds    x[11]
 BV bounds    x[12]
 BV bounds    x[13]
 BV bounds    x[14]
 BV bounds    x[15]
 BV bounds    x[16]
 BV bounds    x[17]
 BV bounds    x[18]
 BV bounds    x[19]
 BV bounds    x[20]
 BV bounds    x[21]
 BV bounds    x[22]
 BV bounds    x[23]
 BV bounds    x[24]
 BV bounds    x[25]
 BV bounds    x[26]
 BV bounds    x[27]
 BV bounds    x[28]
 BV bounds    x[29]
 BV bounds    x[30]
 BV bounds    x[31]
 BV bounds    x[32]
 BV bounds    x[33]
 BV bounds    x[34]
 BV bounds    x[35]
 BV bounds    x[36]
 BV bounds    x[37]
 BV bounds    x[38]
 BV bounds    x[39]
 BV bounds    x[40]
 BV bounds    x[41]
 BV bounds    x[42]
 BV bounds    x[43]
 BV bounds    x[44]
 BV bounds    x[45]
 BV bounds    x[46]
 BV bounds    x[47]
 BV bounds    x[48]
 BV bounds    x[49]
 BV bounds    x[50]
 BV bounds    x[51]
 BV bounds    x[52]
 BV bounds    x[53]
 BV bounds    x[54]
 BV bounds    x[55]
 BV bounds    x[56]
 BV bounds    x[57]
 BV bounds    x[58]
 BV bounds    x[59]
 BV bounds    x[60]
 BV bounds    x[61]
 BV bounds    x[62]
 BV bounds    x[63]
 BV bounds    x[64]
 BV bounds    x[65]
 BV bounds    x[66]
 BV bounds    x[67]
 BV bounds    x[68]
 BV bounds    x[69]
 BV bounds    x[70]
 BV bounds    x[71]
 BV bounds    x[72]
 BV bounds    x[73]
 BV bounds    x[74]
 BV bounds    x[75]
 BV bounds    x[76]
 BV bounds    x[77]
 BV bounds    x[78]
 BV bounds    x[79]
 BV bounds    x[80]
 BV bounds    x[81]
 BV bounds    x[82]
 BV bounds    x[83]
 BV bounds    x[84]
 BV bounds    x[85]
 BV bounds    x[86]
 BV bounds    x[87]
 BV bounds    x[88]
 BV bounds    x[89]
 BV bounds    x[90]
ENDATA
